Maximize
- sv_addi0 - sv_addi1 - sv_addi2 - sv_addi3 - sv_addi4 - sv_br1 - sv_br2 - sv_br3 - sv_br4 - sv_cmpi0 - sv_cmpi1 - sv_cond_br10 - sv_cond_br11 - sv_cond_br12 - sv_cond_br13 - sv_cond_br14 - sv_cond_br15 - sv_cond_br2 - sv_cond_br3 - sv_cond_br4 - sv_cond_br5 - sv_cond_br6 - sv_cond_br7 - sv_cond_br8 - sv_cond_br9 - sv_constant1 - sv_constant2 - sv_constant6 - sv_constant7 - sv_extui0 - sv_extui1 - sv_extui2 - sv_extui3 - sv_extui4 - sv_extui5 - sv_extui6 - sv_extui7 - sv_index_cast0 - sv_index_cast1 - sv_index_cast2 - sv_index_cast3 - sv_index_cast4 - sv_index_cast5 - sv_index_cast6 - sv_index_cast7 - sv_load0 - sv_load1 - sv_load2 - sv_load3 - sv_load4 - sv_load5 - sv_load6 - sv_load7 - sv_muli0 - sv_muli1 - sv_muli2 - sv_muli3 - sv_muli4 - sv_phi0 - sv_phi1 - sv_phi2 - sv_phi3 - sv_phi4 - sv_phi5 - sv_phi6 - sv_phi7 - sv_return1 - sv_start0
Subject to
- sv_constant1 + sv_start0 <= 0.000000
- sv_br1 + sv_constant1 <= 0.000000
- sv_br2 + sv_constant1 <= 0.000000
- sv_br4 + sv_start0 <= 0.000000
- sv_constant2 + sv_phi3 <= 0.000000
- sv_constant6 + sv_phi3 <= 0.000000
- sv_extui0 + sv_phi0 <= 0.000000
sv_extui0 - sv_index_cast0 <= 0.000000
sv_index_cast0 - sv_load0 <= 0.000000
- sv_extui1 + sv_phi0 <= 0.000000
sv_extui1 - sv_index_cast1 <= 0.000000
sv_index_cast1 - sv_load1 <= 0.000000
sv_load0 - sv_muli0 <=  -1.000000
sv_load1 - sv_muli0 <=  -1.000000
- sv_extui2 + sv_phi0 <= 0.000000
sv_extui2 - sv_index_cast2 <= 0.000000
sv_index_cast2 - sv_load2 <= 0.000000
- sv_extui3 + sv_phi0 <= 0.000000
sv_extui3 - sv_index_cast3 <= 0.000000
sv_index_cast3 - sv_load3 <= 0.000000
sv_load2 - sv_muli1 <=  -1.000000
sv_load3 - sv_muli1 <=  -1.000000
- sv_addi0 + sv_muli0 <=  -4.000000
- sv_addi0 + sv_muli1 <=  -4.000000
- sv_addi1 + sv_phi1 <= 0.000000
sv_addi0 - sv_addi1 <=  -1.000000
- sv_addi2 + sv_phi0 <= 0.000000
- sv_addi2 + sv_constant6 <= 0.000000
sv_addi2 - sv_cmpi0 <=  -1.000000
- sv_cmpi0 + sv_constant2 <= 0.000000
sv_cmpi0 - sv_cond_br2 <= 0.000000
sv_addi2 - sv_cond_br2 <=  -1.000000
sv_cmpi0 - sv_cond_br3 <= 0.000000
sv_addi1 - sv_cond_br3 <=  -1.000000
sv_cmpi0 - sv_cond_br4 <= 0.000000
- sv_cond_br4 + sv_phi2 <= 0.000000
sv_cmpi0 - sv_cond_br5 <= 0.000000
- sv_cond_br5 + sv_phi3 <= 0.000000
sv_cmpi0 - sv_cond_br6 <= 0.000000
- sv_cond_br6 + sv_constant6 <= 0.000000
sv_cmpi0 - sv_cond_br7 <= 0.000000
sv_addi1 - sv_cond_br7 <=  -1.000000
sv_cmpi0 - sv_cond_br8 <= 0.000000
- sv_cond_br8 + sv_phi2 <= 0.000000
sv_cmpi0 - sv_cond_br9 <= 0.000000
- sv_cond_br9 + sv_phi3 <= 0.000000
- sv_constant7 + sv_phi7 <= 0.000000
- sv_extui4 + sv_phi4 <= 0.000000
sv_extui4 - sv_index_cast4 <= 0.000000
sv_index_cast4 - sv_load4 <= 0.000000
- sv_extui5 + sv_phi4 <= 0.000000
sv_extui5 - sv_index_cast5 <= 0.000000
sv_index_cast5 - sv_load5 <= 0.000000
sv_load4 - sv_muli2 <=  -1.000000
sv_load5 - sv_muli2 <=  -1.000000
- sv_extui6 + sv_phi4 <= 0.000000
sv_extui6 - sv_index_cast6 <= 0.000000
sv_index_cast6 - sv_load6 <= 0.000000
- sv_extui7 + sv_phi4 <= 0.000000
sv_extui7 - sv_index_cast7 <= 0.000000
sv_index_cast7 - sv_load7 <= 0.000000
sv_load6 - sv_muli3 <=  -1.000000
sv_load7 - sv_muli3 <=  -1.000000
- sv_addi3 + sv_muli2 <=  -4.000000
- sv_addi3 + sv_muli3 <=  -4.000000
- sv_addi4 + sv_phi5 <= 0.000000
sv_addi3 - sv_addi4 <=  -1.000000
- sv_muli4 + sv_phi4 <= 0.000000
- sv_muli4 + sv_phi6 <= 0.000000
- sv_cmpi1 + sv_muli4 <=  -4.000000
- sv_cmpi1 + sv_constant7 <= 0.000000
sv_cmpi1 - sv_cond_br10 <= 0.000000
- sv_cond_br10 + sv_muli4 <=  -4.000000
sv_cmpi1 - sv_cond_br11 <= 0.000000
sv_addi4 - sv_cond_br11 <=  -1.000000
sv_cmpi1 - sv_cond_br12 <= 0.000000
- sv_cond_br12 + sv_phi6 <= 0.000000
sv_cmpi1 - sv_cond_br13 <= 0.000000
- sv_cond_br13 + sv_phi7 <= 0.000000
sv_cmpi1 - sv_cond_br14 <= 0.000000
sv_addi4 - sv_cond_br14 <=  -1.000000
sv_cmpi1 - sv_cond_br15 <= 0.000000
- sv_cond_br15 + sv_phi7 <= 0.000000
sv_cond_br15 - sv_return1 <= 0.000000
sv_cond_br14 - sv_return1 <= 0.000000


sv_addi0 >= 0.000000
sv_addi1 >= 0.000000
sv_addi2 >= 0.000000
sv_addi3 >= 0.000000
sv_addi4 >= 0.000000
sv_br1 >= 0.000000
sv_br2 >= 0.000000
sv_br3 >= 0.000000
sv_br4 >= 0.000000
sv_cmpi0 >= 0.000000
sv_cmpi1 >= 0.000000
sv_cond_br10 >= 0.000000
sv_cond_br11 >= 0.000000
sv_cond_br12 >= 0.000000
sv_cond_br13 >= 0.000000
sv_cond_br14 >= 0.000000
sv_cond_br15 >= 0.000000
sv_cond_br2 >= 0.000000
sv_cond_br3 >= 0.000000
sv_cond_br4 >= 0.000000
sv_cond_br5 >= 0.000000
sv_cond_br6 >= 0.000000
sv_cond_br7 >= 0.000000
sv_cond_br8 >= 0.000000
sv_cond_br9 >= 0.000000
sv_constant1 >= 0.000000
sv_constant2 >= 0.000000
sv_constant6 >= 0.000000
sv_constant7 >= 0.000000
sv_extui0 >= 0.000000
sv_extui1 >= 0.000000
sv_extui2 >= 0.000000
sv_extui3 >= 0.000000
sv_extui4 >= 0.000000
sv_extui5 >= 0.000000
sv_extui6 >= 0.000000
sv_extui7 >= 0.000000
sv_index_cast0 >= 0.000000
sv_index_cast1 >= 0.000000
sv_index_cast2 >= 0.000000
sv_index_cast3 >= 0.000000
sv_index_cast4 >= 0.000000
sv_index_cast5 >= 0.000000
sv_index_cast6 >= 0.000000
sv_index_cast7 >= 0.000000
sv_load0 >= 0.000000
sv_load1 >= 0.000000
sv_load2 >= 0.000000
sv_load3 >= 0.000000
sv_load4 >= 0.000000
sv_load5 >= 0.000000
sv_load6 >= 0.000000
sv_load7 >= 0.000000
sv_muli0 >= 0.000000
sv_muli1 >= 0.000000
sv_muli2 >= 0.000000
sv_muli3 >= 0.000000
sv_muli4 >= 0.000000
sv_phi0 >= 0.000000
sv_phi1 >= 0.000000
sv_phi2 >= 0.000000
sv_phi3 >= 0.000000
sv_phi4 >= 0.000000
sv_phi5 >= 0.000000
sv_phi6 >= 0.000000
sv_phi7 >= 0.000000
sv_return1 >= 0.000000
sv_start0 >= 0.000000
General
sv_addi0 sv_addi1 sv_addi2 sv_addi3 sv_addi4 sv_br1 sv_br2 sv_br3 sv_br4 sv_cmpi0 sv_cmpi1 sv_cond_br10 sv_cond_br11 sv_cond_br12 sv_cond_br13 sv_cond_br14 sv_cond_br15 sv_cond_br2 sv_cond_br3 sv_cond_br4 sv_cond_br5 sv_cond_br6 sv_cond_br7 sv_cond_br8 sv_cond_br9 sv_constant1 sv_constant2 sv_constant6 sv_constant7 sv_extui0 sv_extui1 sv_extui2 sv_extui3 sv_extui4 sv_extui5 sv_extui6 sv_extui7 sv_index_cast0 sv_index_cast1 sv_index_cast2 sv_index_cast3 sv_index_cast4 sv_index_cast5 sv_index_cast6 sv_index_cast7 sv_load0 sv_load1 sv_load2 sv_load3 sv_load4 sv_load5 sv_load6 sv_load7 sv_muli0 sv_muli1 sv_muli2 sv_muli3 sv_muli4 sv_phi0 sv_phi1 sv_phi2 sv_phi3 sv_phi4 sv_phi5 sv_phi6 sv_phi7 sv_return1 sv_start0 

End
